p cnf 43 119
a 34 28 0
e 1 2 3 4 5 6 7 8 9 10 11 12 13 14 15 16 17 18 19 20 21 22 23 24 25 26 27 29 30 31 32 33 35 36 37 38 39 40 41 42 43 0
1 -2 -3 0
-1 2 -3 0
1 2 3 0
-1 -2 3 0
6 4 0
6 -5 0
-4 5 -6 0
-8 -6 0
-8 -7 0
6 7 8 0
-10 5 0
-10 -9 0
-5 9 10 0
13 -11 0
13 12 0
11 -12 -13 0
-14 13 0
-14 -5 0
-13 5 14 0
-15 13 0
-15 -14 0
-13 14 15 0
-16 10 0
-16 -15 0
-10 15 16 0
-8 -16 -17 0
8 16 -17 0
-8 16 17 0
8 -16 17 0
10 -5 -18 0
-10 5 -18 0
10 5 18 0
-10 -5 18 0
19 17 0
19 -18 0
-17 18 -19 0
-20 2 0
-20 6 0
-2 -6 20 0
21 -6 0
21 5 0
6 -5 -21 0
22 21 0
22 -2 0
-21 2 -22 0
4 -10 -23 0
-4 10 -23 0
4 10 23 0
-4 -10 23 0
15 -23 -24 0
-15 23 -24 0
15 23 24 0
-15 -23 24 0
22 24 -25 0
-22 -24 -25 0
22 -24 25 0
-22 24 25 0
-26 -20 0
-26 -25 0
20 25 26 0
-27 9 0
-27 4 0
-9 -4 27 0
29 12 0
29 28 0
-12 -28 -29 0
-30 29 0
-30 11 0
-29 -11 30 0
-31 -27 0
-31 -30 0
27 30 31 0
32 -26 0
32 -31 0
26 31 -32 0
33 9 0
33 2 0
-9 -2 -33 0
-34 11 0
-34 -9 0
-11 9 34 0
35 7 0
35 6 0
-7 -6 -35 0
36 35 0
36 -14 0
-35 14 -36 0
-37 34 0
-37 -36 0
-34 36 37 0
-39 37 0
-39 -38 0
-37 38 39 0
-40 -33 0
-40 39 0
33 -39 40 0
41 32 0
41 -40 0
-32 40 -41 0
-19 -41 -42 0
19 41 -42 0
-19 41 42 0
19 -41 42 0
-3 -42 -43 0
3 42 -43 0
-3 42 43 0
3 -42 43 0
-24 15 -20 -36 22 0
34 -29 22 -20 0
-25 -19 39 -37 -10 15 0
-4 -22 -34 16 0
32 -16 39 -3 0
-3 26 9 0
23 -22 -41 33 -15 11 0
6 -30 -38 0
33 -42 1 0
-25 -39 22 -15 -40 0
11 1 -3 40 0
43 0
